c 
c U(n,d) graph
c graph gen seed     : 5971
c number of vertices : 70
c max number of edges: 2415
c Euclidean distance : 0.400000
c data structure     : sparse
c
c           Graph Stats
c number of vertices  : 70
c nonisolated vertices: 70
c number of edges     : 787
c edge density        : 0.325880
c max degree          : 35
c avg degree          : 22.49
c min degree          : 2
p col 70 787
e 1 70
e 1 69
e 1 68
e 1 66
e 1 61
e 1 57
e 1 56
e 1 53
e 1 51
e 1 48
e 1 45
e 1 38
e 1 37
e 1 30
e 1 28
e 1 18
e 1 13
e 1 12
e 1 4
e 1 3
e 1 2
e 2 70
e 2 69
e 2 68
e 2 66
e 2 61
e 2 57
e 2 56
e 2 53
e 2 51
e 2 48
e 2 45
e 2 38
e 2 37
e 2 30
e 2 28
e 2 18
e 2 13
e 2 12
e 2 4
e 2 3
e 3 70
e 3 69
e 3 68
e 3 66
e 3 57
e 3 56
e 3 53
e 3 48
e 3 45
e 3 37
e 3 30
e 3 28
e 3 13
e 3 12
e 4 70
e 4 68
e 4 64
e 4 61
e 4 59
e 4 57
e 4 56
e 4 51
e 4 48
e 4 47
e 4 38
e 4 37
e 4 33
e 4 29
e 4 28
e 4 22
e 4 20
e 4 19
e 4 18
e 4 17
e 4 13
e 4 12
e 4 7
e 4 5
e 5 67
e 5 64
e 5 62
e 5 59
e 5 52
e 5 47
e 5 46
e 5 44
e 5 41
e 5 35
e 5 34
e 5 29
e 5 25
e 5 23
e 5 22
e 5 20
e 5 19
e 5 17
e 5 14
e 5 7
e 6 67
e 6 63
e 6 62
e 6 55
e 6 46
e 6 43
e 6 40
e 6 39
e 6 32
e 6 31
e 6 27
e 6 25
e 6 16
e 6 11
e 6 8
e 7 70
e 7 68
e 7 64
e 7 62
e 7 61
e 7 60
e 7 59
e 7 58
e 7 57
e 7 56
e 7 52
e 7 47
e 7 44
e 7 38
e 7 36
e 7 33
e 7 29
e 7 28
e 7 25
e 7 24
e 7 22
e 7 20
e 7 19
e 7 18
e 7 17
e 7 13
e 7 12
e 7 9
e 8 67
e 8 64
e 8 63
e 8 62
e 8 60
e 8 58
e 8 55
e 8 52
e 8 49
e 8 46
e 8 43
e 8 40
e 8 39
e 8 36
e 8 32
e 8 31
e 8 27
e 8 25
e 8 22
e 8 16
e 8 15
e 8 11
e 9 68
e 9 66
e 9 64
e 9 59
e 9 57
e 9 56
e 9 54
e 9 53
e 9 50
e 9 42
e 9 36
e 9 33
e 9 28
e 9 26
e 9 24
e 9 21
e 9 18
e 9 17
e 9 15
e 9 13
e 9 10
e 10 58
e 10 54
e 10 53
e 10 50
e 10 49
e 10 42
e 10 36
e 10 33
e 10 26
e 10 24
e 10 21
e 10 15
e 11 67
e 11 64
e 11 63
e 11 62
e 11 60
e 11 58
e 11 55
e 11 52
e 11 49
e 11 46
e 11 44
e 11 43
e 11 40
e 11 39
e 11 36
e 11 32
e 11 31
e 11 27
e 11 25
e 11 22
e 11 16
e 12 70
e 12 69
e 12 68
e 12 66
e 12 61
e 12 57
e 12 56
e 12 53
e 12 51
e 12 48
e 12 47
e 12 45
e 12 38
e 12 37
e 12 33
e 12 30
e 12 28
e 12 19
e 12 18
e 12 13
e 13 70
e 13 69
e 13 68
e 13 66
e 13 64
e 13 61
e 13 59
e 13 57
e 13 56
e 13 53
e 13 51
e 13 48
e 13 47
e 13 42
e 13 38
e 13 37
e 13 36
e 13 33
e 13 30
e 13 29
e 13 28
e 13 24
e 13 20
e 13 19
e 13 18
e 13 17
e 14 67
e 14 65
e 14 52
e 14 47
e 14 44
e 14 41
e 14 35
e 14 34
e 14 29
e 14 25
e 14 23
e 14 22
e 14 20
e 14 19
e 15 64
e 15 60
e 15 58
e 15 54
e 15 50
e 15 49
e 15 42
e 15 36
e 15 33
e 15 27
e 15 26
e 15 24
e 15 21
e 15 18
e 15 17
e 15 16
e 16 64
e 16 63
e 16 62
e 16 60
e 16 58
e 16 55
e 16 52
e 16 49
e 16 46
e 16 43
e 16 40
e 16 39
e 16 36
e 16 32
e 16 31
e 16 27
e 16 25
e 16 22
e 17 68
e 17 64
e 17 62
e 17 61
e 17 60
e 17 59
e 17 58
e 17 57
e 17 52
e 17 47
e 17 44
e 17 38
e 17 36
e 17 33
e 17 32
e 17 29
e 17 28
e 17 25
e 17 24
e 17 22
e 17 20
e 17 19
e 17 18
e 18 70
e 18 68
e 18 66
e 18 64
e 18 61
e 18 59
e 18 58
e 18 57
e 18 56
e 18 53
e 18 52
e 18 48
e 18 47
e 18 42
e 18 38
e 18 37
e 18 36
e 18 33
e 18 29
e 18 28
e 18 24
e 18 22
e 18 20
e 18 19
e 19 70
e 19 68
e 19 64
e 19 61
e 19 59
e 19 51
e 19 48
e 19 47
e 19 38
e 19 37
e 19 35
e 19 33
e 19 29
e 19 28
e 19 22
e 19 20
e 20 67
e 20 64
e 20 62
e 20 61
e 20 59
e 20 52
e 20 51
e 20 47
e 20 44
e 20 41
e 20 38
e 20 35
e 20 34
e 20 33
e 20 29
e 20 25
e 20 23
e 20 22
e 21 54
e 21 50
e 21 42
e 21 36
e 21 26
e 21 24
e 22 67
e 22 64
e 22 63
e 22 62
e 22 60
e 22 59
e 22 58
e 22 55
e 22 52
e 22 47
e 22 46
e 22 44
e 22 41
e 22 40
e 22 39
e 22 36
e 22 34
e 22 33
e 22 32
e 22 31
e 22 29
e 22 27
e 22 25
e 22 23
e 23 67
e 23 62
e 23 55
e 23 52
e 23 47
e 23 46
e 23 44
e 23 41
e 23 39
e 23 35
e 23 34
e 23 32
e 23 29
e 23 25
e 24 68
e 24 64
e 24 62
e 24 60
e 24 59
e 24 58
e 24 57
e 24 56
e 24 54
e 24 53
e 24 52
e 24 49
e 24 42
e 24 36
e 24 33
e 24 28
e 24 27
e 25 67
e 25 64
e 25 63
e 25 62
e 25 60
e 25 59
e 25 58
e 25 55
e 25 52
e 25 47
e 25 46
e 25 44
e 25 43
e 25 41
e 25 40
e 25 39
e 25 34
e 25 32
e 25 31
e 25 29
e 26 54
e 26 50
e 26 42
e 26 36
e 27 64
e 27 63
e 27 62
e 27 60
e 27 58
e 27 55
e 27 52
e 27 49
e 27 46
e 27 43
e 27 40
e 27 39
e 27 36
e 27 32
e 27 31
e 28 70
e 28 69
e 28 68
e 28 66
e 28 61
e 28 59
e 28 57
e 28 56
e 28 53
e 28 51
e 28 48
e 28 45
e 28 38
e 28 37
e 28 33
e 28 30
e 29 70
e 29 67
e 29 64
e 29 61
e 29 59
e 29 52
e 29 51
e 29 47
e 29 44
e 29 41
e 29 38
e 29 35
e 29 34
e 29 33
e 30 70
e 30 69
e 30 68
e 30 66
e 30 61
e 30 57
e 30 56
e 30 51
e 30 48
e 30 45
e 30 38
e 30 37
e 31 67
e 31 63
e 31 62
e 31 60
e 31 58
e 31 55
e 31 52
e 31 49
e 31 46
e 31 43
e 31 40
e 31 39
e 31 32
e 32 67
e 32 64
e 32 63
e 32 62
e 32 60
e 32 59
e 32 58
e 32 55
e 32 52
e 32 49
e 32 46
e 32 44
e 32 43
e 32 40
e 32 39
e 32 36
e 32 34
e 33 68
e 33 64
e 33 62
e 33 61
e 33 60
e 33 59
e 33 58
e 33 57
e 33 56
e 33 53
e 33 52
e 33 47
e 33 38
e 33 36
e 34 67
e 34 63
e 34 62
e 34 59
e 34 55
e 34 52
e 34 47
e 34 46
e 34 44
e 34 41
e 34 39
e 34 35
e 35 65
e 35 47
e 35 44
e 35 41
e 36 68
e 36 64
e 36 62
e 36 60
e 36 59
e 36 58
e 36 54
e 36 52
e 36 49
e 36 42
e 36 40
e 37 70
e 37 69
e 37 68
e 37 66
e 37 61
e 37 57
e 37 56
e 37 51
e 37 48
e 37 45
e 37 38
e 38 70
e 38 68
e 38 61
e 38 59
e 38 57
e 38 51
e 38 48
e 38 47
e 39 67
e 39 63
e 39 62
e 39 60
e 39 58
e 39 55
e 39 52
e 39 49
e 39 46
e 39 44
e 39 43
e 39 41
e 39 40
e 40 67
e 40 64
e 40 63
e 40 62
e 40 60
e 40 59
e 40 58
e 40 55
e 40 52
e 40 49
e 40 46
e 40 44
e 40 43
e 41 67
e 41 62
e 41 55
e 41 52
e 41 47
e 41 46
e 41 44
e 42 68
e 42 66
e 42 57
e 42 56
e 42 54
e 42 53
e 42 50
e 43 67
e 43 63
e 43 62
e 43 55
e 43 46
e 44 67
e 44 64
e 44 63
e 44 62
e 44 59
e 44 55
e 44 52
e 44 47
e 44 46
e 45 70
e 45 69
e 45 66
e 45 57
e 45 56
e 45 48
e 46 67
e 46 64
e 46 63
e 46 62
e 46 60
e 46 59
e 46 58
e 46 55
e 46 52
e 46 49
e 47 70
e 47 68
e 47 67
e 47 64
e 47 61
e 47 59
e 47 52
e 47 51
e 48 70
e 48 69
e 48 68
e 48 66
e 48 61
e 48 57
e 48 56
e 48 53
e 48 51
e 49 63
e 49 62
e 49 60
e 49 58
e 49 55
e 50 54
e 51 70
e 51 68
e 51 61
e 52 67
e 52 64
e 52 63
e 52 62
e 52 60
e 52 59
e 52 58
e 52 55
e 53 69
e 53 68
e 53 66
e 53 57
e 53 56
e 53 54
e 54 68
e 54 66
e 54 57
e 54 56
e 55 67
e 55 64
e 55 63
e 55 62
e 55 60
e 55 59
e 55 58
e 56 70
e 56 69
e 56 68
e 56 66
e 56 57
e 57 70
e 57 69
e 57 68
e 57 66
e 57 64
e 57 61
e 57 59
e 58 67
e 58 64
e 58 63
e 58 62
e 58 60
e 58 59
e 59 68
e 59 67
e 59 64
e 59 62
e 59 61
e 59 60
e 60 67
e 60 64
e 60 63
e 60 62
e 61 70
e 61 68
e 62 67
e 62 64
e 62 63
e 63 67
e 64 68
e 64 67
e 66 69
e 66 68
e 68 70
e 68 69
e 69 70
